
******************************************************************************
This program contains Ipopt, a library for large-scale nonlinear optimization.
 Ipopt is released as open source code under the Eclipse Public License (EPL).
         For more information visit https://github.com/coin-or/Ipopt
******************************************************************************

This is Ipopt version 3.14.19, running with linear solver MUMPS 5.8.2.

Number of nonzeros in equality constraint Jacobian...:  1174800
Number of nonzeros in inequality constraint Jacobian.:   655956
Number of nonzeros in Lagrangian Hessian.............:   383760

Total number of variables............................:   532140
                     variables with only lower bounds:   123852
                variables with lower and upper bounds:        0
                     variables with only upper bounds:        0
Total number of equality constraints.................:   383796
Total number of inequality constraints...............:   284436
        inequality constraints with only lower bounds:        0
   inequality constraints with lower and upper bounds:   160596
        inequality constraints with only upper bounds:   123840

iter    objective    inf_pr   inf_du lg(mu)  ||d||  lg(rg) alpha_du alpha_pr  ls
   0  3.3599966e+01 1.25e+00 9.90e+01  -1.0 0.00e+00    -  0.00e+00 0.00e+00   0
   1  3.3915118e+02 1.25e+00 8.86e+01  -1.0 1.06e+03    -  4.36e-05 5.27e-04h  1
   2  1.4660980e+03 1.25e+00 8.84e+01  -1.0 7.14e+03    -  1.03e-04 3.74e-04h  1
   3  5.5619141e+03 1.25e+00 8.83e+01  -1.0 6.01e+03    -  1.71e-04 1.37e-03h  1
   4  5.6716531e+03 1.25e+00 8.83e+01  -1.0 4.95e+03    -  7.49e-04 3.63e-05h  1
   5  6.7315893e+03 1.25e+00 2.12e+02  -1.0 3.91e+03    -  1.85e-03 3.51e-04h  1
   6  7.1130900e+03 1.25e+00 1.75e+03  -1.0 1.73e+03    -  1.57e-03 1.27e-04h  1
   7  7.1664991e+03 1.25e+00 1.58e+03  -1.0 4.61e+03    -  2.45e-06 1.79e-05h  1
   8  7.3188527e+03 1.25e+00 1.12e+03  -1.0 6.87e+03    -  9.38e-06 5.09e-05h  1
   9r 7.3188527e+03 1.25e+00 9.99e+02   0.1 0.00e+00    -  0.00e+00 3.08e-07R  5
iter    objective    inf_pr   inf_du lg(mu)  ||d||  lg(rg) alpha_du alpha_pr  ls
  10r 1.0197556e+04 1.09e+00 9.99e+02   0.1 3.18e+03    -  3.39e-04 3.73e-04f  1
  11r 1.0197556e+04 1.09e+00 9.99e+02   0.0 0.00e+00    -  0.00e+00 2.55e-07R  5
  12r 1.2780428e+04 9.25e-01 9.99e+02   0.0 2.18e+03    -  4.82e-04 4.62e-04f  1
  13  1.2874318e+04 9.24e-01 9.92e+01  -1.0 1.69e+03    -  1.24e-03 3.33e-05h  1
  14  1.3536084e+04 9.24e-01 9.92e+01  -1.0 1.98e+03    -  3.13e-04 2.25e-04h  1
  15  1.4993943e+04 9.24e-01 9.92e+01  -1.0 1.81e+03    -  4.32e-04 4.93e-04h  1
  16  1.6795468e+04 9.23e-01 9.91e+01  -1.0 1.65e+03    -  5.87e-04 6.05e-04h  1
  17  1.8919246e+04 9.23e-01 9.90e+01  -1.0 1.70e+03    -  5.34e-04 7.04e-04h  1
  18  2.0214062e+04 9.22e-01 9.90e+01  -1.0 1.92e+03    -  7.25e-04 4.26e-04h  1
  19  2.2363205e+04 9.22e-01 9.89e+01  -1.0 2.45e+03    -  7.20e-04 7.10e-04h  1
iter    objective    inf_pr   inf_du lg(mu)  ||d||  lg(rg) alpha_du alpha_pr  ls
  20  2.5444340e+04 9.21e-01 9.89e+01  -1.0 3.01e+03    -  1.31e-03 1.02e-03h  1
  21  3.1125445e+04 9.19e-01 9.87e+01  -1.0 3.45e+03    -  1.57e-03 1.88e-03h  1
  22  3.3822256e+04 9.18e-01 9.86e+01  -1.0 3.62e+03    -  2.32e-03 8.96e-04h  1
  23  4.0215044e+04 9.16e-01 1.07e+02  -1.0 3.71e+03    -  2.53e-03 2.13e-03h  1
  24  4.6845805e+04 9.14e-01 1.29e+02  -1.0 3.84e+03    -  3.01e-03 2.21e-03f  1
  25  5.5046941e+04 9.12e-01 1.35e+02  -1.0 3.93e+03    -  2.98e-03 2.74e-03f  1
  26  6.3075939e+04 9.09e-01 1.55e+02  -1.0 3.98e+03    -  3.63e-03 2.69e-03f  1
  27  7.6915984e+04 9.05e-01 1.14e+02  -1.0 4.01e+03    -  2.65e-03 4.64e-03f  1
  28  8.1709605e+04 9.03e-01 1.37e+02  -1.0 4.05e+03    -  2.89e-03 1.61e-03f  1
  29  8.7991641e+04 9.02e-01 1.13e+02  -1.0 4.09e+03    -  7.33e-04 2.12e-03f  1
iter    objective    inf_pr   inf_du lg(mu)  ||d||  lg(rg) alpha_du alpha_pr  ls
  30  9.4472680e+04 9.00e-01 1.02e+02  -1.0 4.10e+03    -  1.51e-03 2.19e-03f  1
  31  1.0469483e+05 8.96e-01 1.55e+02  -1.0 4.11e+03    -  1.61e-03 3.46e-03f  1
  32  1.1796968e+05 8.92e-01 1.96e+02  -1.0 4.12e+03    -  1.93e-03 4.51e-03f  1
  33  1.3253419e+05 8.88e-01 2.00e+02  -1.0 4.13e+03    -  2.57e-03 4.97e-03f  1
  34  1.4607724e+05 8.84e-01 2.25e+02  -1.0 4.14e+03    -  2.19e-03 4.65e-03f  1
  35  1.5733377e+05 8.80e-01 2.50e+02  -1.0 4.13e+03    -  2.07e-03 3.88e-03f  1
  36  1.6686651e+05 8.77e-01 2.88e+02  -1.0 4.12e+03    -  1.05e-03 3.30e-03h  1
  37  1.7880263e+05 8.74e-01 3.25e+02  -1.0 4.09e+03    -  1.81e-03 4.14e-03h  1
  38  1.8900458e+05 8.71e-01 3.33e+02  -1.0 4.06e+03    -  3.05e-03 3.56e-03h  1
  39  1.9264230e+05 8.70e-01 3.32e+02  -1.0 4.06e+03    -  1.29e-03 1.27e-03h  1
iter    objective    inf_pr   inf_du lg(mu)  ||d||  lg(rg) alpha_du alpha_pr  ls
  40  1.9621323e+05 8.69e-01 3.23e+02  -1.0 4.07e+03    -  1.48e-03 1.25e-03h  1
  41  1.9932015e+05 8.68e-01 3.49e+02  -1.0 4.09e+03    -  5.14e-04 1.09e-03h  1
  42  2.0120851e+05 8.67e-01 3.30e+02  -1.0 4.08e+03    -  1.02e-03 6.63e-04h  1
  43  2.0177337e+05 8.67e-01 2.92e+02  -1.0 4.10e+03    -  8.60e-04 1.98e-04h  1
  44  2.0315929e+05 8.66e-01 2.96e+02  -1.0 4.12e+03    -  5.94e-04 4.87e-04h  1
  45  2.0747896e+05 8.65e-01 3.56e+02  -1.0 4.14e+03    -  4.49e-04 1.52e-03h  1
  46  2.0760463e+05 8.65e-01 2.84e+02  -1.0 4.17e+03    -  1.11e-03 4.42e-05h  1
  47  2.0877873e+05 8.65e-01 2.85e+02  -1.0 4.21e+03    -  3.14e-04 4.12e-04h  1
  48  2.1194230e+05 8.64e-01 3.49e+02  -1.0 4.23e+03    -  3.98e-04 1.11e-03h  1
  49  2.1569812e+05 8.63e-01 3.98e+02  -1.0 4.28e+03    -  9.11e-04 1.32e-03h  1
iter    objective    inf_pr   inf_du lg(mu)  ||d||  lg(rg) alpha_du alpha_pr  ls
  50  2.1575256e+05 8.63e-01 3.29e+02  -1.0 4.43e+03    -  3.96e-04 1.91e-05h  1
  51  2.1607784e+05 8.63e-01 3.19e+02  -1.0 4.45e+03    -  1.66e-04 1.14e-04h  1
  52  2.1660627e+05 8.62e-01 3.13e+02  -1.0 4.47e+03    -  2.13e-04 1.86e-04h  1
  53  2.1722033e+05 8.62e-01 3.00e+02  -1.0 4.51e+03    -  2.73e-04 2.15e-04h  1
  54  2.1747922e+05 8.62e-01 2.87e+02  -1.0 4.56e+03    -  2.10e-04 9.08e-05h  1
  55  2.1785803e+05 8.62e-01 2.88e+02  -1.0 4.62e+03    -  8.43e-05 1.33e-04h  1
  56  2.1804757e+05 8.62e-01 2.86e+02  -1.0 4.64e+03    -  2.51e-04 6.64e-05h  1
  57  2.1911153e+05 8.62e-01 2.90e+02  -1.0 4.64e+03    -  1.64e-04 3.73e-04h  1
  58  2.1950059e+05 8.61e-01 2.88e+02  -1.0 4.64e+03    -  1.76e-04 1.37e-04h  1
  59  2.2082715e+05 8.61e-01 3.50e+02  -1.0 4.64e+03    -  2.09e-04 4.66e-04h  1
iter    objective    inf_pr   inf_du lg(mu)  ||d||  lg(rg) alpha_du alpha_pr  ls
  60  2.2095772e+05 8.61e-01 3.00e+02  -1.0 4.68e+03    -  2.42e-04 4.58e-05h  1
  61  2.2145489e+05 8.61e-01 3.03e+02  -1.0 4.70e+03    -  1.46e-04 1.75e-04h  1
  62  2.2288819e+05 8.60e-01 3.66e+02  -1.0 4.73e+03    -  2.27e-04 5.03e-04h  1
  63  2.2327233e+05 8.60e-01 3.32e+02  -1.0 4.86e+03    -  2.97e-04 1.35e-04h  1
  64  2.2348209e+05 8.60e-01 3.16e+02  -1.0 4.98e+03    -  2.03e-04 7.37e-05h  1
  65r 2.2348209e+05 8.60e-01 9.99e+02  -0.1 0.00e+00    -  0.00e+00 3.44e-07R  4
  66r 2.3343716e+05 7.80e-01 9.99e+02  -0.1 5.60e+04    -  3.81e-04 2.49e-04f  1
  67r 2.5379920e+05 1.39e+00 9.98e+02  -0.1 4.02e+04    -  7.31e-04 4.85e-04f  1
  68r 2.8467403e+05 2.25e+00 9.97e+02  -0.1 1.65e+04    -  6.12e-04 7.34e-04f  1
  69r 3.5547125e+05 4.14e+00 9.96e+02  -0.1 1.24e+04    -  1.60e-03 1.93e-03f  1
iter    objective    inf_pr   inf_du lg(mu)  ||d||  lg(rg) alpha_du alpha_pr  ls
  70r 4.1269114e+05 4.20e+00 9.95e+02  -0.1 7.81e+03    -  1.17e-03 2.37e-03f  1
  71r 4.7325849e+05 4.20e+00 9.95e+02  -0.1 8.62e+03    -  1.21e-03 2.32e-03f  1
  72r 5.2723355e+05 4.20e+00 9.95e+02  -0.1 8.49e+03    -  1.32e-03 2.05e-03f  1
  73r 5.4674390e+05 4.20e+00 9.93e+02  -0.1 7.77e+03    -  1.94e-03 7.83e-04f  1
  74r 5.7823010e+05 4.20e+00 9.92e+02  -0.1 6.93e+03    -  1.74e-03 1.37e-03f  1
  75r 6.2860316e+05 4.20e+00 1.04e+03  -0.1 6.60e+03    -  3.04e-04 2.59e-03f  1
  76r 6.4177972e+05 4.19e+00 9.92e+02  -0.1 6.02e+03    -  3.38e-03 1.22e-03f  1
  77r 6.5537049e+05 4.18e+00 1.01e+03  -0.1 4.67e+03    -  1.37e-04 2.52e-03f  1
  78r 6.5983245e+05 4.17e+00 1.00e+03  -0.1 2.17e+03    -  2.20e-03 1.49e-03f  1
  79r 6.7295165e+05 4.14e+00 1.01e+03  -0.1 7.26e+02    -  3.70e-03 5.62e-03f  1
iter    objective    inf_pr   inf_du lg(mu)  ||d||  lg(rg) alpha_du alpha_pr  ls
  80r 6.9092762e+05 4.10e+00 1.02e+03  -0.1 5.74e+02    -  5.29e-03 9.62e-03f  1
  81r 7.0602296e+05 4.05e+00 1.02e+03  -0.1 4.39e+02    -  7.35e-03 1.10e-02f  1
  82r 7.1852545e+05 3.99e+00 1.00e+03  -0.1 3.44e+02    -  1.69e-02 1.32e-02f  1
  83r 7.2458067e+05 3.95e+00 9.85e+02  -0.1 2.84e+02    -  2.00e-02 1.03e-02f  1
  84r 7.3204432e+05 3.87e+00 9.44e+02  -0.1 2.07e+02    -  5.04e-02 1.75e-02f  1
  85r 7.5192245e+05 3.63e+00 8.73e+02  -0.1 1.35e+02    -  8.02e-02 6.25e-02f  1
  86r 8.5656236e+05 3.24e+00 1.14e+03  -0.1 4.69e+02    -  9.00e-03 9.85e-02f  1
  87r 9.1203365e+05 3.19e+00 1.12e+03  -0.1 1.51e+03    -  1.59e-02 1.56e-02f  1
  88r 1.0032971e+06 3.11e+00 1.13e+03  -0.1 1.59e+03    -  1.08e-02 2.04e-02f  1
  89r 1.0796939e+06 3.05e+00 1.12e+03  -0.1 1.49e+03    -  9.79e-03 1.66e-02f  1
iter    objective    inf_pr   inf_du lg(mu)  ||d||  lg(rg) alpha_du alpha_pr  ls
  90r 1.1478401e+06 3.00e+00 1.12e+03  -0.1 1.43e+03    -  8.57e-03 1.50e-02f  1
  91r 1.1753894e+06 2.98e+00 1.11e+03  -0.1 1.40e+03    -  7.78e-03 6.31e-03f  1
  92r 1.1887209e+06 2.97e+00 1.09e+03  -0.1 1.42e+03    -  9.81e-03 3.48e-03f  1
  93r 1.2087147e+06 2.94e+00 1.08e+03  -0.1 1.48e+03    -  1.18e-02 6.70e-03f  1
  94r 1.2239689e+06 2.91e+00 1.06e+03  -0.1 1.35e+03    -  2.02e-02 8.03e-03f  1
  95r 1.2332355e+06 2.88e+00 1.01e+03  -0.1 6.79e+02    -  4.53e-02 9.62e-03f  1
  96r 1.2601465e+06 2.80e+00 9.92e+02  -0.1 4.52e+02    -  2.08e-02 2.40e-02f  1
  97r 1.3484272e+06 2.69e+00 9.81e+02  -0.1 1.21e+03    -  1.11e-02 3.58e-02f  1
  98r 1.4320272e+06 2.69e+00 9.61e+02  -0.1 1.32e+03    -  2.17e-02 2.46e-02f  1
  99r 1.5422053e+06 2.69e+00 9.55e+02  -0.1 1.27e+03    -  1.01e-02 2.88e-02f  1
iter    objective    inf_pr   inf_du lg(mu)  ||d||  lg(rg) alpha_du alpha_pr  ls
 100r 1.6210630e+06 2.66e+00 9.48e+02  -0.1 1.13e+03    -  1.02e-02 2.25e-02f  1
 101r 1.6930356e+06 2.62e+00 9.40e+02  -0.1 1.04e+03    -  1.03e-02 2.21e-02f  1
 102r 1.7038944e+06 2.60e+00 9.25e+02  -0.1 9.82e+02    -  1.39e-02 3.80e-03f  1
 103r 1.7246772e+06 2.58e+00 9.10e+02  -0.1 9.87e+02    -  1.58e-02 8.26e-03f  1
 104r 1.7440292e+06 2.54e+00 8.85e+02  -0.1 9.72e+02    -  2.61e-02 1.06e-02f  1
 105r 1.7608974e+06 2.49e+00 8.37e+02  -0.1 7.91e+02    -  5.66e-02 1.44e-02f  1
 106r 1.7815564e+06 2.42e+00 8.03e+02  -0.1 4.32e+02    -  4.13e-02 2.31e-02f  1
 107r 1.8177657e+06 2.36e+00 7.82e+02  -0.1 5.21e+02    -  2.61e-02 2.91e-02f  1
 108r 1.9383404e+06 2.37e+00 7.60e+02  -0.1 7.15e+02    -  2.97e-02 6.92e-02f  1
 109r 2.0376357e+06 2.27e+00 7.27e+02  -0.1 6.39e+02    -  4.54e-02 5.29e-02f  1
iter    objective    inf_pr   inf_du lg(mu)  ||d||  lg(rg) alpha_du alpha_pr  ls
 110r 2.1442713e+06 2.18e+00 7.09e+02  -0.1 5.91e+02    -  2.76e-02 5.77e-02f  1
 111r 2.2559548e+06 2.05e+00 6.91e+02  -0.1 5.46e+02    -  2.97e-02 6.82e-02f  1
 112r 2.3038708e+06 1.96e+00 6.66e+02  -0.1 4.65e+02    -  3.60e-02 3.50e-02f  1
 113r 2.3225477e+06 1.91e+00 6.25e+02  -0.1 4.19e+02    -  5.79e-02 1.62e-02f  1
 114r 2.3495133e+06 1.81e+00 5.77e+02  -0.1 3.58e+02    -  8.28e-02 3.13e-02f  1
 115r 2.3774622e+06 1.67e+00 5.37e+02  -0.1 2.33e+02    -  8.60e-02 4.42e-02f  1
 116r 2.4105747e+06 1.48e+00 5.04e+02  -0.1 1.91e+02    -  6.26e-02 5.83e-02f  1
 117r 2.4880934e+06 1.15e+00 4.54e+02  -0.1 1.91e+02    -  8.98e-02 1.37e-01f  1
 118r 2.5680601e+06 8.47e-01 3.92e+02  -0.1 1.81e+02    -  1.26e-01 1.51e-01f  1
 119r 2.6141498e+06 6.31e-01 3.41e+02  -0.1 1.46e+02    -  1.35e-01 1.06e-01f  1
iter    objective    inf_pr   inf_du lg(mu)  ||d||  lg(rg) alpha_du alpha_pr  ls
 120r 2.6646814e+06 3.55e-01 2.95e+02  -0.1 1.27e+02    -  1.34e-01 1.36e-01f  1
 121r 2.7463478e+06 3.29e-01 2.43e+02  -0.1 1.19e+02    -  1.66e-01 2.38e-01f  1
 122r 2.8104183e+06 3.32e-01 1.95e+02  -0.1 9.03e+01    -  1.94e-01 2.52e-01f  1
 123r 2.8457043e+06 3.34e-01 1.46e+02  -0.1 5.31e+01    -  3.18e-01 2.43e-01f  1
 124  2.8456789e+06 3.34e-01 9.90e+01  -1.0 2.73e+03    -  1.12e-03 1.37e-04h  1
 125  2.8456584e+06 3.34e-01 9.89e+01  -1.0 2.79e+03    -  1.96e-03 7.02e-04h  1
 126  2.8456667e+06 3.33e-01 1.79e+02  -1.0 3.34e+03    -  4.09e-03 1.93e-04h  1
 127  2.8456844e+06 3.33e-01 1.20e+03  -1.0 4.65e+03    -  3.91e-03 3.51e-04h  1
 128  2.8456988e+06 3.33e-01 2.24e+03  -1.0 7.40e+03    -  1.11e-03 2.85e-04h  2
 129  2.8457147e+06 3.33e-01 7.41e+03  -1.0 8.50e+03    -  4.03e-03 2.85e-04h  3
iter    objective    inf_pr   inf_du lg(mu)  ||d||  lg(rg) alpha_du alpha_pr  ls
 130  2.8457326e+06 3.33e-01 7.80e+03  -1.0 1.15e+04    -  2.22e-03 1.99e-04h  3
 131  2.8457686e+06 3.33e-01 7.31e+03  -1.0 1.11e+04    -  2.51e-03 2.66e-04h  3
 132  2.8458849e+06 3.33e-01 5.66e+03  -1.0 8.23e+03    -  3.11e-03 6.05e-04h  2
 133  2.8462338e+06 3.32e-01 6.59e+03  -1.0 3.76e+03    -  3.72e-03 1.57e-03f  1
 134  2.8467530e+06 3.32e-01 6.53e+03  -1.0 3.27e+03    -  2.09e-03 2.27e-03f  1
 135  2.8468443e+06 3.31e-01 6.61e+03  -1.0 2.96e+03    -  1.82e-03 3.77e-04f  1
 136  2.8469449e+06 3.31e-01 6.58e+03  -1.0 2.86e+03    -  1.24e-03 3.96e-04f  1
 137  2.8470367e+06 3.31e-01 6.49e+03  -1.0 2.81e+03    -  1.15e-03 3.40e-04f  1
 138  2.8471324e+06 3.31e-01 6.25e+03  -1.0 2.71e+03    -  1.33e-03 3.42e-04h  1
 139  2.8472576e+06 3.31e-01 5.92e+03  -1.0 2.66e+03    -  1.20e-03 4.57e-04h  1
iter    objective    inf_pr   inf_du lg(mu)  ||d||  lg(rg) alpha_du alpha_pr  ls
 140  2.8473675e+06 3.31e-01 5.49e+03  -1.0 2.43e+03    -  1.02e-03 4.19e-04h  1
 141  2.8474783e+06 3.31e-01 6.13e+03  -1.0 2.22e+03    -  1.80e-03 4.33e-04h  1
 142  2.8475642e+06 3.30e-01 7.02e+03  -1.0 2.47e+03    -  1.72e-03 3.48e-04f  1
 143  2.8476908e+06 3.30e-01 8.08e+03  -1.0 2.88e+03    -  2.57e-03 5.35e-04f  1
 144  2.8478355e+06 3.30e-01 9.27e+03  -1.0 3.87e+03    -  4.20e-03 6.43e-04f  1
 145  2.8480176e+06 3.30e-01 9.53e+03  -1.0 8.86e+03    -  2.53e-03 8.52e-04f  1
 146  2.8480682e+06 3.30e-01 9.61e+03  -1.0 3.41e+04    -  1.02e-03 2.42e-04f  1
 147  2.8481281e+06 3.30e-01 9.65e+03  -1.0 6.21e+04    -  7.12e-04 2.87e-04f  1
 148  2.8481582e+06 3.30e-01 9.79e+03  -1.0 2.44e+04    -  1.88e-03 1.45e-04f  1
 149  2.8482328e+06 3.29e-01 9.95e+03  -1.0 1.23e+04    -  2.85e-03 3.58e-04f  1
iter    objective    inf_pr   inf_du lg(mu)  ||d||  lg(rg) alpha_du alpha_pr  ls
 150  2.8483828e+06 3.29e-01 1.00e+04  -1.0 1.42e+04    -  2.61e-03 7.14e-04f  1
 151  2.8484860e+06 3.29e-01 1.01e+04  -1.0 1.09e+04    -  3.09e-03 4.83e-04f  1
 152  2.8485980e+06 3.29e-01 1.01e+04  -1.0 1.24e+04    -  1.76e-03 5.16e-04f  1
 153  2.8486963e+06 3.29e-01 1.02e+04  -1.0 1.20e+04    -  2.40e-03 4.50e-04f  1
 154  2.8487963e+06 3.29e-01 1.02e+04  -1.0 1.34e+04    -  2.96e-03 4.55e-04f  1
 155  2.8490166e+06 3.28e-01 1.02e+04  -1.0 9.44e+03    -  3.46e-03 9.97e-04f  1
 156  2.8492873e+06 3.28e-01 1.02e+04  -1.0 9.96e+03    -  3.71e-03 1.22e-03f  1
 157  2.8495224e+06 3.28e-01 1.01e+04  -1.0 2.06e+04    -  2.60e-03 1.06e-03f  1
 158  2.8499371e+06 3.27e-01 1.01e+04  -1.0 1.92e+04    -  3.40e-03 1.87e-03f  1
 159  2.8504595e+06 3.26e-01 1.01e+04  -1.0 1.49e+04    -  4.61e-03 2.37e-03f  1
iter    objective    inf_pr   inf_du lg(mu)  ||d||  lg(rg) alpha_du alpha_pr  ls
 160  2.8518637e+06 3.24e-01 1.01e+04  -1.0 1.30e+04    -  7.09e-04 6.40e-03f  1
 161  2.8531539e+06 3.22e-01 1.00e+04  -1.0 4.80e+03    -  6.41e-03 5.93e-03f  1
 162  2.8549268e+06 3.19e-01 9.88e+03  -1.0 2.64e+03  -4.0 1.25e-02 8.33e-03f  1
 163  2.8560903e+06 3.18e-01 9.82e+03  -1.0 2.35e+03  -4.5 6.75e-03 5.50e-03f  1
 164  2.8563086e+06 3.17e-01 9.81e+03  -1.0 7.08e+04  -5.0 6.08e-04 1.03e-03f  1
 165  2.8583212e+06 3.14e-01 9.74e+03  -1.0 2.75e+03  -4.5 6.96e-03 9.59e-03f  1
 166  2.8592620e+06 3.13e-01 9.67e+03  -1.0 7.22e+03  -5.0 7.58e-03 4.52e-03f  1
 167  2.8605852e+06 3.11e-01 9.55e+03  -1.0 3.25e+03  -4.6 1.14e-02 6.41e-03f  1
 168  2.8620884e+06 3.09e-01 9.53e+03  -1.0 3.18e+03  -4.2 2.43e-03 7.44e-03f  1
 169  2.8632499e+06 3.07e-01 9.37e+03  -1.0 3.66e+03  -4.6 1.53e-02 5.72e-03f  1
iter    objective    inf_pr   inf_du lg(mu)  ||d||  lg(rg) alpha_du alpha_pr  ls
 170  2.8647366e+06 3.05e-01 9.22e+03  -1.0 2.87e+03  -4.2 1.48e-02 7.53e-03f  1
 171  2.8666140e+06 3.02e-01 9.17e+03  -1.0 2.71e+03  -4.7 6.07e-03 9.50e-03f  1
 172  2.8684783e+06 2.99e-01 8.93e+03  -1.0 2.71e+03  -4.3 2.32e-02 9.81e-03f  1
 173  2.8704945e+06 2.95e-01 8.78e+03  -1.0 3.11e+03  -4.7 1.54e-02 1.08e-02f  1
 174  2.8723891e+06 2.92e-01 8.57e+03  -1.0 2.98e+03  -4.3 2.19e-02 1.07e-02f  1
 175  2.8741438e+06 2.89e-01 8.30e+03  -1.0 2.33e+03  -3.9 2.90e-02 1.06e-02f  1
 176  2.8780428e+06 2.82e-01 8.10e+03  -1.0 3.52e+03  -4.4 2.42e-02 2.49e-02f  1
 177  2.8801104e+06 2.78e-01 7.81e+03  -1.0 2.36e+03  -3.9 3.28e-02 1.42e-02f  1
 178  2.8822565e+06 2.73e-01 7.70e+03  -1.0 4.89e+03  -4.4 1.46e-02 1.77e-02f  1
 179  2.8843083e+06 2.69e-01 7.42e+03  -1.0 2.38e+03  -4.0 3.24e-02 1.58e-02f  1
iter    objective    inf_pr   inf_du lg(mu)  ||d||  lg(rg) alpha_du alpha_pr  ls
 180  2.8869402e+06 2.64e-01 7.34e+03  -1.0 1.62e+03  -3.6 1.20e-02 1.95e-02f  1
 181  2.8887338e+06 2.59e-01 7.11e+03  -1.0 2.31e+03  -4.0 2.76e-02 1.53e-02f  1
 182  2.8904344e+06 2.56e-01 6.85e+03  -1.0 1.56e+03  -3.6 3.58e-02 1.34e-02f  1
 183  2.8929568e+06 2.50e-01 6.59e+03  -1.0 2.29e+03  -4.1 3.54e-02 2.39e-02f  1
 184  2.8958166e+06 2.44e-01 6.34e+03  -1.0 1.50e+03  -3.7 3.68e-02 2.40e-02f  1
 185  2.8996867e+06 2.36e-01 6.07e+03  -1.0 1.19e+03  -3.2 4.85e-02 3.11e-02f  1
 186  2.9046667e+06 2.26e-01 5.68e+03  -1.0 1.39e+03  -3.7 6.09e-02 4.51e-02f  1
 187  2.9117520e+06 2.12e-01 5.37e+03  -1.0 1.08e+03  -3.3 5.41e-02 6.18e-02f  1
 188  2.9171433e+06 2.00e-01 4.93e+03  -1.0 1.23e+03  -3.8 7.66e-02 5.55e-02f  1
 189  2.9202875e+06 1.94e-01 4.47e+03  -1.0 9.65e+02  -3.3 1.01e-01 3.08e-02f  1
iter    objective    inf_pr   inf_du lg(mu)  ||d||  lg(rg) alpha_du alpha_pr  ls
 190  2.9256109e+06 1.82e-01 3.83e+03  -1.0 1.13e+03  -3.8 1.22e-01 5.99e-02f  1
 191  2.9385502e+06 1.57e-01 3.22e+03  -1.0 8.89e+02  -3.4 1.59e-01 1.37e-01f  1
 192  2.9504261e+06 1.32e-01 2.62e+03  -1.0 9.85e+02  -3.9 1.78e-01 1.62e-01f  1
 193  2.9556667e+06 1.22e-01 2.06e+03  -1.0 6.91e+02  -3.4 3.28e-01 7.38e-02h  2
 194  2.9754741e+06 8.10e-02 1.49e+03  -1.0 8.32e+02  -3.9 4.39e-01 3.37e-01f  1
 195  2.9854507e+06 6.31e-02 1.07e+03  -1.0 4.53e+02  -3.5 1.11e-02 2.20e-01f  1
 196  2.9901399e+06 5.20e-02 9.56e+02  -1.0 4.92e+02  -4.0 5.83e-02 1.75e-01f  1
 197  2.9899281e+06 5.05e-02 9.67e+02  -1.0 3.60e+03  -4.4 1.01e-02 2.90e-02f  1
 198  2.9933083e+06 4.13e-02 9.38e+02  -1.0 4.20e+02  -4.0 1.05e-01 1.82e-01f  1
 199  2.9922020e+06 3.78e-02 9.45e+02  -1.0 2.43e+03  -4.5 3.78e-02 8.63e-02f  1
iter    objective    inf_pr   inf_du lg(mu)  ||d||  lg(rg) alpha_du alpha_pr  ls
 200  2.9952638e+06 2.71e-02 8.95e+02  -1.0 3.44e+02  -4.1 1.54e-01 2.83e-01f  1
 201  2.9935437e+06 2.40e-02 8.04e+02  -1.0 8.70e+02  -4.5 1.07e-01 1.15e-01f  1
 202  2.9946673e+06 1.62e-02 6.14e+02  -1.0 2.43e+02  -4.1 2.70e-01 3.25e-01f  1
 203  2.9914244e+06 1.30e-02 4.64e+02  -1.0 5.17e+02  -4.6 2.26e-01 1.97e-01f  1
 204  2.9908601e+06 8.67e-03 3.11e+02  -1.0 1.53e+02  -4.2 3.31e-01 3.33e-01f  1
 205  2.9875502e+06 6.91e-03 2.42e+02  -1.0 2.95e+02  -4.6 2.14e-01 2.03e-01f  1
 206  2.9836362e+06 6.15e-03 2.14e+02  -1.0 8.24e+02  -5.1 1.14e-01 1.10e-01f  1
 207  2.9814108e+06 5.16e-03 1.72e+02  -1.0 2.62e+02  -4.7 1.82e-01 1.61e-01f  1
 208  2.9782883e+06 4.55e-03 1.56e+02  -1.0 5.96e+02  -5.2 1.03e-01 1.18e-01f  1
 209  2.9746660e+06 4.10e-03 2.74e+02  -1.0 1.46e+03  -5.7 6.99e-02 9.96e-02f  1
iter    objective    inf_pr   inf_du lg(mu)  ||d||  lg(rg) alpha_du alpha_pr  ls
 210  2.9722706e+06 3.58e-03 3.68e+02  -1.0 5.98e+02  -5.2 1.14e-01 1.27e-01f  1
 211  2.9699872e+06 3.25e-03 2.96e+02  -1.0 1.13e+03  -5.7 9.51e-02 9.18e-02f  1
 212  2.9675868e+06 2.75e-03 4.65e+02  -1.0 6.26e+02  -5.3 1.37e-01 1.54e-01f  1
 213  2.9649830e+06 2.40e-03 6.04e+02  -1.0 1.15e+03  -5.8 1.15e-01 1.28e-01f  1
 214  2.9635726e+06 2.13e-03 1.02e+02  -1.0 5.95e+02  -5.3 1.37e-01 1.12e-01f  1
 215  2.9613781e+06 1.85e-03 5.43e+02  -1.0 1.06e+03  -5.8 1.09e-01 1.32e-01f  1
 216  2.9598872e+06 1.68e-03 4.88e+02  -1.0 1.75e+03  -6.3 1.35e-01 9.15e-02f  1
 217  2.9585617e+06 1.49e-03 6.06e+02  -1.0 7.27e+02  -5.9 1.20e-01 1.13e-01f  1
 218  2.9575226e+06 1.32e-03 1.34e+03  -1.0 9.80e+02  -6.3 1.40e-01 1.11e-01f  1
 219  2.9568660e+06 1.16e-03 2.40e+03  -1.0 4.78e+02  -5.9 1.63e-01 1.24e-01f  1
iter    objective    inf_pr   inf_du lg(mu)  ||d||  lg(rg) alpha_du alpha_pr  ls
 220  2.9564672e+06 1.04e-03 1.23e+03  -1.0 7.96e+02  -6.4 7.71e-02 1.03e-01f  1
 221  2.9561449e+06 9.05e-04 1.73e+03  -1.0 4.40e+02  -6.0 1.47e-01 1.30e-01f  1
 222  2.9558702e+06 7.71e-04 8.03e+02  -1.0 5.35e+02  -6.4 9.83e-02 1.48e-01f  1
 223  2.9557485e+06 7.00e-04 1.22e+03  -1.0 5.29e+03  -6.9 1.28e-01 9.16e-02f  1
 224  2.9555332e+06 5.37e-04 4.80e+03  -1.0 4.17e+02  -6.5 1.37e-01 2.33e-01f  1
 225  2.9554685e+06 4.70e-04 5.43e+03  -1.0 8.25e+02  -7.0 1.08e-01 1.24e-01f  1
 226  2.9554305e+06 4.26e-04 2.76e+03  -1.0 6.26e+03  -7.4 1.20e-01 9.50e-02f  1
 227  2.9553864e+06 3.56e-04 3.17e+03  -1.0 2.20e+03  -7.0 1.54e-01 1.63e-01f  1
 228  2.9553702e+06 2.98e-04 6.64e+03  -1.0 2.50e+02  -6.6 2.43e-01 1.62e-01f  1
 229  2.9553592e+06 2.23e-04 4.90e+03  -1.0 3.34e+02  -7.1 2.51e-01 2.51e-01f  1
iter    objective    inf_pr   inf_du lg(mu)  ||d||  lg(rg) alpha_du alpha_pr  ls
 230  2.9553499e+06 1.56e-04 1.34e+04  -1.0 3.51e+02    -  2.07e-01 3.00e-01f  1
 231  2.9553416e+06 9.86e-05 7.47e+03  -1.0 2.80e+02    -  3.74e-01 3.70e-01f  1
 232  2.9553393e+06 5.82e-05 3.38e+04  -1.0 3.81e+02    -  5.07e-01 4.10e-01f  1
 233  2.9553431e+06 4.86e-05 1.30e+05  -1.0 7.65e+02    -  3.25e-01 1.64e-01f  1
 234  2.9553469e+06 3.97e-05 1.93e+05  -1.0 1.13e+03    -  3.03e-01 1.84e-01f  1
 235  2.9553518e+06 2.82e-05 3.76e+05  -1.0 1.61e+03    -  5.68e-01 2.88e-01f  1
 236  2.9553577e+06 1.44e-05 7.32e+05  -1.0 3.63e+03    -  9.87e-01 4.88e-01f  1
 237  2.9553640e+06 8.22e-13 1.46e+06  -1.0 7.16e+04    -  8.76e-02 1.00e+00f  1
 238  2.9553641e+06 5.31e-13 6.15e+00  -1.0 1.89e+04    -  1.00e+00 1.00e+00h  1
 239  2.9553641e+06 7.94e-13 2.40e-02  -1.0 5.87e+03    -  1.00e+00 1.00e+00h  1
iter    objective    inf_pr   inf_du lg(mu)  ||d||  lg(rg) alpha_du alpha_pr  ls
 240  2.9533038e+06 4.35e-13 3.03e+06  -2.5 6.50e+02    -  7.07e-01 3.64e-01f  1
 241  2.9522972e+06 5.44e-13 3.03e+06  -2.5 7.77e+02    -  6.15e-01 2.82e-01f  1
 242  2.9515960e+06 4.55e-13 2.58e+06  -2.5 6.75e+02    -  6.86e-01 2.83e-01f  1
 243  2.9509178e+06 4.62e-13 1.71e+06  -2.5 5.41e+02    -  8.96e-01 3.95e-01f  1
 244  2.9505258e+06 4.33e-13 1.06e+06  -2.5 2.27e+02    -  8.40e-01 3.89e-01f  1
 245  2.9502236e+06 8.78e-13 5.32e+05  -2.5 1.04e+02    -  1.00e+00 5.01e-01f  1
 246  2.9500641e+06 4.88e-13 2.46e+05  -2.5 5.94e+01    -  1.00e+00 5.37e-01f  1
 247  2.9499407e+06 5.42e-13 2.46e+04  -2.5 3.12e+01    -  1.00e+00 9.00e-01f  1
 248  2.9499272e+06 4.05e-13 1.23e-04  -2.5 4.79e+00    -  1.00e+00 1.00e+00h  1
 249  2.9498634e+06 4.14e-13 1.02e+05  -3.8 3.57e+01    -  8.92e-01 4.72e-01f  1
iter    objective    inf_pr   inf_du lg(mu)  ||d||  lg(rg) alpha_du alpha_pr  ls
 250  2.9498308e+06 5.24e-13 6.82e+04  -3.8 2.03e+01    -  9.63e-01 4.61e-01f  1
 251  2.9498157e+06 6.25e-13 4.16e+04  -3.8 1.19e+01    -  1.00e+00 3.99e-01f  1
 252  2.9498032e+06 5.92e-13 1.87e+04  -3.8 8.59e+00    -  1.00e+00 5.51e-01f  1
 253  2.9497930e+06 6.59e-13 4.68e-05  -3.8 4.68e+00    -  1.00e+00 1.00e+00f  1
 254  2.9497879e+06 6.89e-13 1.29e+03  -5.7 3.37e+00    -  5.98e-01 6.94e-01f  1
 255  2.9497861e+06 1.36e-07 6.82e+01  -5.7 2.76e+00    -  8.37e-01 7.70e-01f  1
 256  2.9497857e+06 2.24e-06 1.10e+02  -5.7 1.15e+00    -  1.00e+00 8.84e-01f  1
MUMPS returned INFO(1) = -9 and requires more memory, reallocating.  Attempt 1
  Increasing icntl[13] from 1000 to 2000.
 257  2.9497856e+06 1.74e-12 3.81e-07  -5.7 2.57e-01    -  1.00e+00 1.00e+00f  1
 258  2.9497856e+06 4.38e-09 3.17e+01  -8.6 1.15e-01    -  9.87e-01 7.98e-01f  1
 259  2.9497855e+06 1.13e-09 9.76e+00  -8.6 2.48e-02  -7.5 1.00e+00 7.12e-01f  1
iter    objective    inf_pr   inf_du lg(mu)  ||d||  lg(rg) alpha_du alpha_pr  ls
 260  2.9497855e+06 5.54e-08 2.32e+00  -8.6 7.02e-03  -8.0 1.00e+00 7.62e-01f  1
 261  2.9497855e+06 1.58e-08 4.45e-01  -8.6 1.21e-03  -8.5 1.00e+00 8.09e-01f  1
 262  2.9497855e+06 4.08e-12 5.35e-10  -8.6 1.97e-04  -9.0 1.00e+00 1.00e+00f  1

Number of Iterations....: 262

                                   (scaled)                 (unscaled)
Objective...............:   7.3970512480823440e+05    2.9497855413083388e+06
Dual infeasibility......:   5.3505047678671372e-10    2.1336666562973251e-09
Constraint violation....:   4.0820680169417756e-12    4.0820680169417756e-12
Variable bound violation:   0.0000000000000000e+00    0.0000000000000000e+00
Complementarity.........:   2.9602641518125264e-09    1.1804899142389689e-08
Overall NLP error.......:   2.9602641518125264e-09    1.1804899142389689e-08


Number of objective function evaluations             = 293
Number of objective gradient evaluations             = 206
Number of equality constraint evaluations            = 293
Number of inequality constraint evaluations          = 293
Number of equality constraint Jacobian evaluations   = 266
Number of inequality constraint Jacobian evaluations = 266
Number of Lagrangian Hessian evaluations             = 262
Total seconds in IPOPT                               = 1533.276

EXIT: Optimal Solution Found.
